129943
127
97
96
122
27
121
31
28
32
24
25
37
38
41
33
42
39
34
43
47
117
52
46
48
45
93
111
110
106
126
92
94
102
44
53
56
50
120
55
4
51
123
54
65
99
2
9
119
13
11
30
26
29
40
35
36
15
0
1
49
114
12
6
104
14
107
19
21
18
71
7
8
10
113
105
5
23
22
3
16
20
17
76
78
79
77
116
83
62
118
95
108
87
86
85
84
109
103
88
91
98
64
124
112
63
57
90
60
89
115
59
61
58
66
72
73
67
70
69
68
74
75
80
125
81
82
101
100
